p cnf 499 1218
1 0
15 -16 0
-15 16 0
17 -18 0
-17 18 0
14 -15 0
14 -17 0
-14 15 17 0
19 -20 0
-19 20 0
13 -14 0
13 -19 0
-13 14 19 0
-22 14 0
22 -14 0
23 20 0
-23 -20 0
21 -22 0
21 -23 0
-21 22 23 0
-12 13 0
-12 21 0
12 -13 -21 0
26 -16 0
-26 16 0
27 18 0
-27 -18 0
25 -26 0
25 -27 0
-25 26 27 0
28 -20 0
-28 20 0
24 -25 0
24 -28 0
-24 25 28 0
-11 12 0
-11 24 0
11 -12 -24 0
-30 25 0
30 -25 0
31 20 0
-31 -20 0
29 -30 0
29 -31 0
-29 30 31 0
-10 11 0
-10 29 0
10 -11 -29 0
34 16 0
-34 -16 0
35 -18 0
-35 18 0
33 -34 0
33 -35 0
-33 34 35 0
36 -20 0
-36 20 0
32 -33 0
32 -36 0
-32 33 36 0
-9 10 0
-9 32 0
9 -10 -32 0
-38 33 0
38 -33 0
39 20 0
-39 -20 0
37 -38 0
37 -39 0
-37 38 39 0
-8 9 0
-8 37 0
8 -9 -37 0
42 16 0
-42 -16 0
43 18 0
-43 -18 0
41 -42 0
41 -43 0
-41 42 43 0
44 -20 0
-44 20 0
40 -41 0
40 -44 0
-40 41 44 0
-7 8 0
-7 40 0
7 -8 -40 0
-45 40 0
45 -40 0
-6 7 0
-6 45 0
6 -7 -45 0
56 -57 0
-56 57 0
58 -59 0
-58 59 0
55 -56 0
55 -58 0
-55 56 58 0
60 -61 0
-60 61 0
54 -55 0
54 -60 0
-54 55 60 0
-63 55 0
63 -55 0
64 61 0
-64 -61 0
62 -63 0
62 -64 0
-62 63 64 0
-53 54 0
-53 62 0
53 -54 -62 0
67 -57 0
-67 57 0
68 59 0
-68 -59 0
66 -67 0
66 -68 0
-66 67 68 0
69 -61 0
-69 61 0
65 -66 0
65 -69 0
-65 66 69 0
-52 53 0
-52 65 0
52 -53 -65 0
-71 66 0
71 -66 0
72 61 0
-72 -61 0
70 -71 0
70 -72 0
-70 71 72 0
-51 52 0
-51 70 0
51 -52 -70 0
75 57 0
-75 -57 0
76 -59 0
-76 59 0
74 -75 0
74 -76 0
-74 75 76 0
77 -61 0
-77 61 0
73 -74 0
73 -77 0
-73 74 77 0
-50 51 0
-50 73 0
50 -51 -73 0
-79 74 0
79 -74 0
80 61 0
-80 -61 0
78 -79 0
78 -80 0
-78 79 80 0
-49 50 0
-49 78 0
49 -50 -78 0
83 57 0
-83 -57 0
84 59 0
-84 -59 0
82 -83 0
82 -84 0
-82 83 84 0
85 -61 0
-85 61 0
81 -82 0
81 -85 0
-81 82 85 0
-48 49 0
-48 81 0
48 -49 -81 0
-86 81 0
86 -81 0
-47 48 0
-47 86 0
47 -48 -86 0
-87 40 0
87 -40 0
-46 47 0
-46 87 0
46 -47 -87 0
5 -6 0
5 -46 0
-5 6 46 0
98 -99 0
-98 99 0
100 -101 0
-100 101 0
97 -98 0
97 -100 0
-97 98 100 0
102 -103 0
-102 103 0
96 -97 0
96 -102 0
-96 97 102 0
-105 97 0
105 -97 0
106 103 0
-106 -103 0
104 -105 0
104 -106 0
-104 105 106 0
-95 96 0
-95 104 0
95 -96 -104 0
109 -99 0
-109 99 0
110 101 0
-110 -101 0
108 -109 0
108 -110 0
-108 109 110 0
111 -103 0
-111 103 0
107 -108 0
107 -111 0
-107 108 111 0
-94 95 0
-94 107 0
94 -95 -107 0
-113 108 0
113 -108 0
114 103 0
-114 -103 0
112 -113 0
112 -114 0
-112 113 114 0
-93 94 0
-93 112 0
93 -94 -112 0
117 99 0
-117 -99 0
118 -101 0
-118 101 0
116 -117 0
116 -118 0
-116 117 118 0
119 -103 0
-119 103 0
115 -116 0
115 -119 0
-115 116 119 0
-92 93 0
-92 115 0
92 -93 -115 0
-121 116 0
121 -116 0
122 103 0
-122 -103 0
120 -121 0
120 -122 0
-120 121 122 0
-91 92 0
-91 120 0
91 -92 -120 0
125 99 0
-125 -99 0
126 101 0
-126 -101 0
124 -125 0
124 -126 0
-124 125 126 0
127 -103 0
-127 103 0
123 -124 0
123 -127 0
-123 124 127 0
-90 91 0
-90 123 0
90 -91 -123 0
-128 123 0
128 -123 0
-89 90 0
-89 128 0
89 -90 -128 0
-130 40 0
130 -40 0
-131 81 0
131 -81 0
-129 130 0
-129 131 0
129 -130 -131 0
-88 89 0
-88 129 0
88 -89 -129 0
4 -5 0
4 -88 0
-4 5 88 0
142 -143 0
-142 143 0
144 -145 0
-144 145 0
141 -142 0
141 -144 0
-141 142 144 0
146 -147 0
-146 147 0
140 -141 0
140 -146 0
-140 141 146 0
-149 141 0
149 -141 0
150 147 0
-150 -147 0
148 -149 0
148 -150 0
-148 149 150 0
-139 140 0
-139 148 0
139 -140 -148 0
153 -143 0
-153 143 0
154 145 0
-154 -145 0
152 -153 0
152 -154 0
-152 153 154 0
155 -147 0
-155 147 0
151 -152 0
151 -155 0
-151 152 155 0
-138 139 0
-138 151 0
138 -139 -151 0
-157 152 0
157 -152 0
158 147 0
-158 -147 0
156 -157 0
156 -158 0
-156 157 158 0
-137 138 0
-137 156 0
137 -138 -156 0
161 143 0
-161 -143 0
162 -145 0
-162 145 0
160 -161 0
160 -162 0
-160 161 162 0
163 -147 0
-163 147 0
159 -160 0
159 -163 0
-159 160 163 0
-136 137 0
-136 159 0
136 -137 -159 0
-165 160 0
165 -160 0
166 147 0
-166 -147 0
164 -165 0
164 -166 0
-164 165 166 0
-135 136 0
-135 164 0
135 -136 -164 0
169 143 0
-169 -143 0
170 145 0
-170 -145 0
168 -169 0
168 -170 0
-168 169 170 0
171 -147 0
-171 147 0
167 -168 0
167 -171 0
-167 168 171 0
-134 135 0
-134 167 0
134 -135 -167 0
-172 167 0
172 -167 0
-133 134 0
-133 172 0
133 -134 -172 0
-174 129 0
174 -129 0
-175 123 0
175 -123 0
-173 174 0
-173 175 0
173 -174 -175 0
-132 133 0
-132 173 0
132 -133 -173 0
3 -4 0
3 -132 0
-3 4 132 0
-182 173 0
182 -173 0
-183 167 0
183 -167 0
-181 182 0
-181 183 0
181 -182 -183 0
-184 3 0
184 -3 0
180 -181 0
180 -184 0
-180 181 184 0
195 -143 0
-195 143 0
196 145 0
-196 -145 0
-194 195 0
-194 196 0
194 -195 -196 0
197 -147 0
-197 147 0
-193 194 0
-193 197 0
193 -194 -197 0
200 -16 0
-200 16 0
201 18 0
-201 -18 0
-199 200 0
-199 201 0
199 -200 -201 0
202 20 0
-202 -20 0
-198 199 0
-198 202 0
198 -199 -202 0
-192 193 0
-192 198 0
192 -193 -198 0
-205 194 0
205 -194 0
206 147 0
-206 -147 0
-204 205 0
-204 206 0
204 -205 -206 0
-208 199 0
208 -199 0
209 -20 0
-209 20 0
-207 208 0
-207 209 0
207 -208 -209 0
-203 204 0
-203 207 0
203 -204 -207 0
191 -192 0
191 -203 0
-191 192 203 0
-211 204 0
211 -204 0
214 -16 0
-214 16 0
215 -18 0
-215 18 0
-213 214 0
-213 215 0
213 -214 -215 0
216 20 0
-216 -20 0
-212 213 0
-212 216 0
212 -213 -216 0
-210 211 0
-210 212 0
210 -211 -212 0
190 -191 0
190 -210 0
-190 191 210 0
220 143 0
-220 -143 0
221 -145 0
-221 145 0
-219 220 0
-219 221 0
219 -220 -221 0
222 -147 0
-222 147 0
-218 219 0
-218 222 0
218 -219 -222 0
-223 198 0
223 -198 0
-217 218 0
-217 223 0
217 -218 -223 0
189 -190 0
189 -217 0
-189 190 217 0
-226 219 0
226 -219 0
227 147 0
-227 -147 0
-225 226 0
-225 227 0
225 -226 -227 0
230 16 0
-230 -16 0
231 -18 0
-231 18 0
-229 230 0
-229 231 0
229 -230 -231 0
232 -20 0
-232 20 0
-228 229 0
-228 232 0
228 -229 -232 0
-224 225 0
-224 228 0
224 -225 -228 0
188 -189 0
188 -224 0
-188 189 224 0
236 -143 0
-236 143 0
237 -145 0
-237 145 0
-235 236 0
-235 237 0
235 -236 -237 0
238 147 0
-238 -147 0
-234 235 0
-234 238 0
234 -235 -238 0
241 16 0
-241 -16 0
242 18 0
-242 -18 0
-240 241 0
-240 242 0
240 -241 -242 0
243 -20 0
-243 20 0
-239 240 0
-239 243 0
239 -240 -243 0
-233 234 0
-233 239 0
233 -234 -239 0
187 -188 0
187 -233 0
-187 188 233 0
247 143 0
-247 -143 0
248 145 0
-248 -145 0
-246 247 0
-246 248 0
246 -247 -248 0
249 -147 0
-249 147 0
-245 246 0
-245 249 0
245 -246 -249 0
-251 229 0
251 -229 0
252 20 0
-252 -20 0
-250 251 0
-250 252 0
250 -251 -252 0
-244 245 0
-244 250 0
244 -245 -250 0
186 -187 0
186 -244 0
-186 187 244 0
-255 246 0
255 -246 0
256 147 0
-256 -147 0
-254 255 0
-254 256 0
254 -255 -256 0
-257 239 0
257 -239 0
-253 254 0
-253 257 0
253 -254 -257 0
185 -186 0
185 -253 0
-185 186 253 0
-179 180 0
-179 185 0
179 -180 -185 0
-259 180 0
259 -180 0
-268 193 0
268 -193 0
271 -57 0
-271 57 0
272 59 0
-272 -59 0
-270 271 0
-270 272 0
270 -271 -272 0
273 61 0
-273 -61 0
-269 270 0
-269 273 0
269 -270 -273 0
-267 268 0
-267 269 0
267 -268 -269 0
-275 204 0
275 -204 0
-277 270 0
277 -270 0
278 -61 0
-278 61 0
-276 277 0
-276 278 0
276 -277 -278 0
-274 275 0
-274 276 0
274 -275 -276 0
266 -267 0
266 -274 0
-266 267 274 0
-280 204 0
280 -204 0
283 -57 0
-283 57 0
284 -59 0
-284 59 0
-282 283 0
-282 284 0
282 -283 -284 0
285 61 0
-285 -61 0
-281 282 0
-281 285 0
281 -282 -285 0
-279 280 0
-279 281 0
279 -280 -281 0
265 -266 0
265 -279 0
-265 266 279 0
-287 218 0
287 -218 0
-288 269 0
288 -269 0
-286 287 0
-286 288 0
286 -287 -288 0
264 -265 0
264 -286 0
-264 265 286 0
-290 225 0
290 -225 0
293 57 0
-293 -57 0
294 -59 0
-294 59 0
-292 293 0
-292 294 0
292 -293 -294 0
295 -61 0
-295 61 0
-291 292 0
-291 295 0
291 -292 -295 0
-289 290 0
-289 291 0
289 -290 -291 0
263 -264 0
263 -289 0
-263 264 289 0
-297 234 0
297 -234 0
300 57 0
-300 -57 0
301 59 0
-301 -59 0
-299 300 0
-299 301 0
299 -300 -301 0
302 -61 0
-302 61 0
-298 299 0
-298 302 0
298 -299 -302 0
-296 297 0
-296 298 0
296 -297 -298 0
262 -263 0
262 -296 0
-262 263 296 0
-304 245 0
304 -245 0
-306 292 0
306 -292 0
307 61 0
-307 -61 0
-305 306 0
-305 307 0
305 -306 -307 0
-303 304 0
-303 305 0
303 -304 -305 0
261 -262 0
261 -303 0
-261 262 303 0
-309 254 0
309 -254 0
-310 298 0
310 -298 0
-308 309 0
-308 310 0
308 -309 -310 0
260 -261 0
260 -308 0
-260 261 308 0
-258 259 0
-258 260 0
258 -259 -260 0
178 -179 0
178 -258 0
-178 179 258 0
-312 180 0
312 -180 0
-321 193 0
321 -193 0
324 -99 0
-324 99 0
325 101 0
-325 -101 0
-323 324 0
-323 325 0
323 -324 -325 0
326 103 0
-326 -103 0
-322 323 0
-322 326 0
322 -323 -326 0
-320 321 0
-320 322 0
320 -321 -322 0
-328 204 0
328 -204 0
-330 323 0
330 -323 0
331 -103 0
-331 103 0
-329 330 0
-329 331 0
329 -330 -331 0
-327 328 0
-327 329 0
327 -328 -329 0
319 -320 0
319 -327 0
-319 320 327 0
-333 204 0
333 -204 0
336 -99 0
-336 99 0
337 -101 0
-337 101 0
-335 336 0
-335 337 0
335 -336 -337 0
338 103 0
-338 -103 0
-334 335 0
-334 338 0
334 -335 -338 0
-332 333 0
-332 334 0
332 -333 -334 0
318 -319 0
318 -332 0
-318 319 332 0
-340 218 0
340 -218 0
-341 322 0
341 -322 0
-339 340 0
-339 341 0
339 -340 -341 0
317 -318 0
317 -339 0
-317 318 339 0
-343 225 0
343 -225 0
346 99 0
-346 -99 0
347 -101 0
-347 101 0
-345 346 0
-345 347 0
345 -346 -347 0
348 -103 0
-348 103 0
-344 345 0
-344 348 0
344 -345 -348 0
-342 343 0
-342 344 0
342 -343 -344 0
316 -317 0
316 -342 0
-316 317 342 0
-350 234 0
350 -234 0
353 99 0
-353 -99 0
354 101 0
-354 -101 0
-352 353 0
-352 354 0
352 -353 -354 0
355 -103 0
-355 103 0
-351 352 0
-351 355 0
351 -352 -355 0
-349 350 0
-349 351 0
349 -350 -351 0
315 -316 0
315 -349 0
-315 316 349 0
-357 245 0
357 -245 0
-359 345 0
359 -345 0
360 103 0
-360 -103 0
-358 359 0
-358 360 0
358 -359 -360 0
-356 357 0
-356 358 0
356 -357 -358 0
314 -315 0
314 -356 0
-314 315 356 0
-362 254 0
362 -254 0
-363 351 0
363 -351 0
-361 362 0
-361 363 0
361 -362 -363 0
313 -314 0
313 -361 0
-313 314 361 0
-311 312 0
-311 313 0
311 -312 -313 0
177 -178 0
177 -311 0
-177 178 311 0
-365 180 0
365 -180 0
-374 193 0
374 -193 0
-375 204 0
375 -204 0
-373 374 0
-373 375 0
373 -374 -375 0
-377 204 0
377 -204 0
-378 193 0
378 -193 0
-376 377 0
-376 378 0
376 -377 -378 0
372 -373 0
372 -376 0
-372 373 376 0
-380 204 0
380 -204 0
-381 234 0
381 -234 0
-379 380 0
-379 381 0
379 -380 -381 0
371 -372 0
371 -379 0
-371 372 379 0
-383 218 0
383 -218 0
-384 204 0
384 -204 0
-382 383 0
-382 384 0
382 -383 -384 0
370 -371 0
370 -382 0
-370 371 382 0
-386 225 0
386 -225 0
-387 218 0
387 -218 0
-385 386 0
-385 387 0
385 -386 -387 0
369 -370 0
369 -385 0
-369 370 385 0
-389 234 0
389 -234 0
-390 245 0
390 -245 0
-388 389 0
-388 390 0
388 -389 -390 0
368 -369 0
368 -388 0
-368 369 388 0
-392 245 0
392 -245 0
-393 225 0
393 -225 0
-391 392 0
-391 393 0
391 -392 -393 0
367 -368 0
367 -391 0
-367 368 391 0
-395 254 0
395 -254 0
-396 245 0
396 -245 0
-394 395 0
-394 396 0
394 -395 -396 0
366 -367 0
366 -394 0
-366 367 394 0
-364 365 0
-364 366 0
364 -365 -366 0
176 -177 0
176 -364 0
-176 177 364 0
2 -3 0
2 -176 0
-2 3 176 0
-408 207 0
408 -207 0
-409 269 0
409 -269 0
-407 408 0
-407 409 0
407 -408 -409 0
-411 198 0
411 -198 0
-412 276 0
412 -276 0
-410 411 0
-410 412 0
410 -411 -412 0
406 -407 0
406 -410 0
-406 407 410 0
-414 198 0
414 -198 0
-415 281 0
415 -281 0
-413 414 0
-413 415 0
413 -414 -415 0
405 -406 0
405 -413 0
-405 406 413 0
-417 228 0
417 -228 0
-418 269 0
418 -269 0
-416 417 0
-416 418 0
416 -417 -418 0
404 -405 0
404 -416 0
-404 405 416 0
-420 250 0
420 -250 0
-421 291 0
421 -291 0
-419 420 0
-419 421 0
419 -420 -421 0
403 -404 0
403 -419 0
-403 404 419 0
-423 212 0
423 -212 0
-424 298 0
424 -298 0
-422 423 0
-422 424 0
422 -423 -424 0
402 -403 0
402 -422 0
-402 403 422 0
-426 239 0
426 -239 0
-427 305 0
427 -305 0
-425 426 0
-425 427 0
425 -426 -427 0
401 -402 0
401 -425 0
-401 402 425 0
-430 240 0
430 -240 0
431 20 0
-431 -20 0
-429 430 0
-429 431 0
429 -430 -431 0
-432 298 0
432 -298 0
-428 429 0
-428 432 0
428 -429 -432 0
400 -401 0
400 -428 0
-400 401 428 0
-441 276 0
441 -276 0
-442 322 0
442 -322 0
-440 441 0
-440 442 0
440 -441 -442 0
-444 269 0
444 -269 0
-445 329 0
445 -329 0
-443 444 0
-443 445 0
443 -444 -445 0
439 -440 0
439 -443 0
-439 440 443 0
-447 269 0
447 -269 0
-448 334 0
448 -334 0
-446 447 0
-446 448 0
446 -447 -448 0
438 -439 0
438 -446 0
-438 439 446 0
-450 291 0
450 -291 0
-451 322 0
451 -322 0
-449 450 0
-449 451 0
449 -450 -451 0
437 -438 0
437 -449 0
-437 438 449 0
-453 305 0
453 -305 0
-454 344 0
454 -344 0
-452 453 0
-452 454 0
452 -453 -454 0
436 -437 0
436 -452 0
-436 437 452 0
-456 281 0
456 -281 0
-457 351 0
457 -351 0
-455 456 0
-455 457 0
455 -456 -457 0
435 -436 0
435 -455 0
-435 436 455 0
-459 298 0
459 -298 0
-460 358 0
460 -358 0
-458 459 0
-458 460 0
458 -459 -460 0
434 -435 0
434 -458 0
-434 435 458 0
-463 299 0
463 -299 0
464 61 0
-464 -61 0
-462 463 0
-462 464 0
462 -463 -464 0
-465 351 0
465 -351 0
-461 462 0
-461 465 0
461 -462 -465 0
433 -434 0
433 -461 0
-433 434 461 0
-399 400 0
-399 433 0
399 -400 -433 0
-474 329 0
474 -329 0
-475 204 0
475 -204 0
-473 474 0
-473 475 0
473 -474 -475 0
-477 322 0
477 -322 0
-478 193 0
478 -193 0
-476 477 0
-476 478 0
476 -477 -478 0
472 -473 0
472 -476 0
-472 473 476 0
-480 322 0
480 -322 0
-481 234 0
481 -234 0
-479 480 0
-479 481 0
479 -480 -481 0
471 -472 0
471 -479 0
-471 472 479 0
-483 344 0
483 -344 0
-484 204 0
484 -204 0
-482 483 0
-482 484 0
482 -483 -484 0
470 -471 0
470 -482 0
-470 471 482 0
-486 358 0
486 -358 0
-487 218 0
487 -218 0
-485 486 0
-485 487 0
485 -486 -487 0
469 -470 0
469 -485 0
-469 470 485 0
-489 334 0
489 -334 0
-490 245 0
490 -245 0
-488 489 0
-488 490 0
488 -489 -490 0
468 -469 0
468 -488 0
-468 469 488 0
-492 351 0
492 -351 0
-493 225 0
493 -225 0
-491 492 0
-491 493 0
491 -492 -493 0
467 -468 0
467 -491 0
-467 468 491 0
-496 352 0
496 -352 0
497 103 0
-497 -103 0
-495 496 0
-495 497 0
495 -496 -497 0
-498 245 0
498 -245 0
-494 495 0
-494 498 0
494 -495 -498 0
466 -467 0
466 -494 0
-466 467 494 0
-398 399 0
-398 466 0
398 -399 -466 0
-499 429 0
499 -429 0
-397 398 0
-397 499 0
397 -398 -499 0
-1 2 0
-1 397 0
1 -2 -397 0
